Traveling Salesman Problem/TSP_generados/Aleatorio1621103977_18.tsp
NAME: Aleatorio1621103977_18.tsp
COMMENT: Randomly generated scenario
TYPE: TSP
DIMENSION: 18
EDGE_WEIGHT_TYPE: ATT
NODE_COORD_SECTION
1 20.95 38.41
2 7.34 10.01
3 32.31 40.21
4 0.05 24.35
5 40.46 2.99
6 10.34 44.74
7 2.81 44.11
8 31.8 0.96
9 15.3 7.23
10 0.66 33.74
11 46.18 41.27
12 1.88 8.93
13 19.04 26.52
14 30.79 30.58
15 37.89 8.49
16 27.42 44.88
17 25.01 34.18
18 7.24 49.09
