Traveling Salesman Problem/TSP_generados/Aleatorio1621103977_18.opt.tour
NAME: Aleatorio1621103977_18.opt.tour
COMMENT: Optimal solution for Aleatorio1621103977_18 (197.6703355597244)
TYPE: TOUR
DIMENSION: 18
TOUR_SECTION
1 6 18 7 10 4 12 2 9 8 5 15 13 17 14 11 3 16
-1
EOF
